6
0 1 1 5 -1 -1
1 0 5 1 -1 -1
1 5 0 5 5 1
5 1 5 0 1 5
-1 -1 5 1 0 1
-1 -1 1 5 1 0

8
00 03 -1 -1 -1 02 06 -1
03 00 04 05 -1 05 -1 -1
-1 04 00 -1 05 -1 -1 02
-1 05 -1 00 04 -1 04 -1
-1 -1 05 04 00 -1 -1 04
02 05 -1 -1 -1 00 03 -1
06 -1 -1 04 -1 03 00 02
-1 -1 02 -1 04 -1 02 00 
